54, 696
1092, 54
1177, 44
427, 41
687, 31
652, 22
693, 63
1125, 80
880, 96
932, 76
1221, 58
411, 33
1020, 10
1154, 58
739, 38
376, 51
992, 55
691, 66
1038, 19
295, 5
917, 38
258, 82
356, 33
591, 11
616, 86
944, 46
969, 95
1056, 83
950, 56
340, 73
921, 71
379, 87
483, 38
569, 52
886, 71
695, 18
1024, 61
850, 69
622, 53
1083, 63
1180, 53
1084, 55
658, 6
417, 77
296, 38
956, 34
1007, 25
828, 87
478, 33
1064, 65
874, 93
809, 92
997, 89
916, 2
1002, 39